100 4 100
20 93 27 30 14 49 97 26 74 12 66 66 20 89 13 32 5 73 36 67 98 90 78 6 28 10 75 83 28 64 10 48 57 90 31 23 39 28 50 13 92 16 79 64 58 45 96 63 70 84 31 68 26 61 26 54 24 2 89 52 18 52 53 75 42 84 51 81 64 1 46 8 17 77 72 27 74 68 91 44 5 74 65 31 35 91 86 59 45 27 12 63 79 17 91 21 1 42 54 17 
